NAME: berlin52.tour
TYPE: TOUR
COMMENT: Cost = 8182.1915557256725 Time = 6.965885 ms
DIMENSION: 52
TOUR_SECTION
760
795
770
720
685
685
700
700
830
830
835
845
845
880
945
975
1220
1250
1320
1215
1170
1465
1530
1740
1605
1340
1150
875
650
580
525
475
510
555
575
605
565
520
420
415
345
145
300
480
560
595
725
660
410
95
25
25
-1